StudentsNr = 10;
InstructorsNr = 12;
DaysNr = 2;
SlotsPerDay = 15;
AvailabilitySlotsLenght = 3;
RoomNr = 2;
ProgrammNr = 1;
DegreeNr = 1;
RolesNr = 2;
CoursesNr = 0;
InstructorsProgramm = [{1}, {1}, {1}, {1}, {1}, {1}, {1}, {1}, {1}, {1}, {1}, {1}];
InstructorRolesPerProgramm = [|{1, 3, 4, 6, 9, 10}, {1, 4, 5, 8, 11}|];
InstructorsAvailability = [|0, 1, 1, 1, 1, 1, 1, 1, 1, 0, |0, 1, 1, 1, 1, 0, 1, 1, 1, 1, |0, 1, 1, 1, 0, 1, 1, 1, 1, 1, |0, 1, 1, 1, 1, 0, 1, 1, 1, 1, |0, 0, 1, 1, 0, 0, 1, 1, 1, 1, |1, 1, 1, 1, 1, 1, 1, 1, 1, 1, |0, 1, 1, 1, 1, 1, 1, 1, 1, 1, |0, 0, 1, 1, 1, 1, 1, 1, 1, 1, |1, 0, 1, 1, 0, 1, 1, 1, 1, 1, |0, 0, 0, 1, 0, 1, 1, 0, 0, 0, |1, 1, 1, 0, 1, 1, 1, 1, 1, 1, |1, 1, 0, 1, 0, 0, 0, 0, 0, 0|];
StudentsProgramm = [1, 1, 1, 1, 1, 1, 1, 1, 1, 1];
StudentsDegree = [1, 1, 1, 1, 1, 1, 1, 1, 1, 1];
StudentsSupervisorId = [5, 8, 9, 4, 1, 6, 12, 11, 2, 8];
StudentsCourseIds = [{}, {}, {}, {}, {}, {}, {}, {}, {}, {}];
StudentsAvailability = [|1, 1, 1, 1, 1, 1, 1, 1, 1, 1, |1, 1, 1, 0, 1, 1, 0, 1, 1, 1, |1, 1, 1, 1, 0, 0, 0, 0, 0, 0, |0, 1, 1, 1, 1, 1, 1, 1, 1, 1, |0, 1, 1, 1, 1, 0, 0, 0, 1, 1, |1, 1, 0, 0, 1, 1, 1, 1, 0, 1, |1, 1, 1, 1, 1, 1, 1, 1, 1, 1, |0, 0, 0, 0, 0, 0, 1, 1, 1, 0, |0, 0, 0, 0, 1, 1, 1, 1, 1, 1, |0, 1, 1, 1, 1, 1, 0, 1, 1, 1|];
TheoryticalMinCard = [0, 0, 0, 0, 0, 0, 1, 0, 1, 0];
CoursesInstructorIds = [];
RolesDemands = [2, 3];
RolesContinuity = [];
ExamLen = [1, 1, 1, 1, 1, 1, 1, 1, 1, 1];
LunchTsMinLen = 1;
LunchStarts = [6..11, 18..26];
SupervisorAvailable = 5;
OptimalLunchLenght = [2, 1];
OptimalStartTs = [2, 0];
OptimalFinishTs = [0, 15];
MinimizeRooms = 400;
RolesSoftContinuity = [|1, 2|0, 1|];
SameDegreeInRoom = 0;
Mergeability = 1;
